OutputFormat = OVF2_BINARY

// Mesh
SetGridSize(1, 1, 1)
SetCellSize(1e-09, 1e-09, 1e-09)

// Magnetisation
m.LoadFile("/home/holtsamu/ubermag-devtools/repos/mumax3c/mumax3c/tests/test_sample/macrospin/drive-1/m0.omf")
Msat.setregion(0, 999999.9999999999)

regions.LoadFile("/home/holtsamu/ubermag-devtools/repos/mumax3c/mumax3c/tests/test_sample/macrospin/drive-1/mumax3_regions.omf")

// Zeeman
B_ext.add(LoadFile("/home/holtsamu/ubermag-devtools/repos/mumax3c/mumax3c/tests/test_sample/macrospin/drive-1/B_ext.ovf"), 1)
tableadd(E_Zeeman)
enabledemag = false

tableadd(E_total)
tableadd(dt)
tableadd(maxtorque)
alpha = 0.1
gammaLL = 176085964286.56906
doprecess = true
setsolver(5)
fixDt = 0

for snap_counter:=0; snap_counter<1; snap_counter++{
    run(1e-12)
    save(m_full)
    tablesave()
}